branch-and-cut/resultados/I080/i080-133.sol
2261
13
1 15
43 4
38 9
8 29
7 9
15 29
15 64
43 29
5 64
64 38
1 3
6 38
2 8
